c Choco 231113
v <instantiation id='sol1' type='solution' ><list>x[0][0] x[0][1] x[0][2] x[0][3] x[0][4] x[0][5] x[0][6] x[0][7] x[0][8] x[1][0] x[1][1] x[1][2] x[1][3] x[1][4] x[1][5] x[1][6] x[1][7] x[1][8] x[2][0] x[2][1] x[2][2] x[2][3] x[2][4] x[2][5] x[2][6] x[2][7] x[2][8] x[3][0] x[3][1] x[3][2] x[3][3] x[3][4] x[3][5] x[3][6] x[3][7] x[3][8] x[4][0] x[4][1] x[4][2] x[4][3] x[4][4] x[4][5] x[4][6] x[4][7] x[4][8] x[5][0] x[5][1] x[5][2] x[5][3] x[5][4] x[5][5] x[5][6] x[5][7] x[5][8] x[6][0] x[6][1] x[6][2] x[6][3] x[6][4] x[6][5] x[6][6] x[6][7] x[6][8] x[7][0] x[7][1] x[7][2] x[7][3] x[7][4] x[7][5] x[7][6] x[7][7] x[7][8] x[8][0] x[8][1] x[8][2] x[8][3] x[8][4] x[8][5] x[8][6] x[8][7] x[8][8] </list><values>4 2 6 5 7 1 3 9 8 8 5 7 2 9 3 1 4 6 1 3 9 4 6 8 2 7 5 9 7 1 3 8 5 6 2 4 5 4 3 7 2 6 8 1 9 6 8 2 1 4 9 7 5 3 7 9 4 6 3 2 5 8 1 2 6 5 8 1 4 9 3 7 3 1 8 9 5 7 4 6 2 </values></instantiation>

s SATISFIABLE
v <instantiation id='sol1' type='solution' ><list>x[0][0] x[0][1] x[0][2] x[0][3] x[0][4] x[0][5] x[0][6] x[0][7] x[0][8] x[1][0] x[1][1] x[1][2] x[1][3] x[1][4] x[1][5] x[1][6] x[1][7] x[1][8] x[2][0] x[2][1] x[2][2] x[2][3] x[2][4] x[2][5] x[2][6] x[2][7] x[2][8] x[3][0] x[3][1] x[3][2] x[3][3] x[3][4] x[3][5] x[3][6] x[3][7] x[3][8] x[4][0] x[4][1] x[4][2] x[4][3] x[4][4] x[4][5] x[4][6] x[4][7] x[4][8] x[5][0] x[5][1] x[5][2] x[5][3] x[5][4] x[5][5] x[5][6] x[5][7] x[5][8] x[6][0] x[6][1] x[6][2] x[6][3] x[6][4] x[6][5] x[6][6] x[6][7] x[6][8] x[7][0] x[7][1] x[7][2] x[7][3] x[7][4] x[7][5] x[7][6] x[7][7] x[7][8] x[8][0] x[8][1] x[8][2] x[8][3] x[8][4] x[8][5] x[8][6] x[8][7] x[8][8] </list><values>4 2 6 5 7 1 3 9 8 8 5 7 2 9 3 1 4 6 1 3 9 4 6 8 2 7 5 9 7 1 3 8 5 6 2 4 5 4 3 7 2 6 8 1 9 6 8 2 1 4 9 7 5 3 7 9 4 6 3 2 5 8 1 2 6 5 8 1 4 9 3 7 3 1 8 9 5 7 4 6 2 </values></instantiation>
d FOUND SOLUTIONS 1

